
Gurobi 11.0.3 (linux64) logging started Mon 18 Nov 2024 10:56:53 PM CST

Set parameter LogFile to value "/home/dlcole3/graph_abstraction/hierarchical_graphs/git_storage/CS1/HP_low_reserves/gurobi_logs/serial/logfile_ST19_4.log"

Gurobi 11.0.3 (linux64) logging started Mon 18 Nov 2024 10:58:22 PM CST

Set parameter LogFile to value "/home/dlcole3/graph_abstraction/hierarchical_graphs/git_storage/CS1/HP_low_reserves/gurobi_logs/serial/logfile_ST19_4.log"
Gurobi Optimizer version 11.0.3 build v11.0.3rc0 (linux64 - "Ubuntu 18.04.3 LTS")

CPU model: Intel(R) Xeon(R) CPU E5-2698 v4 @ 2.20GHz, instruction set [SSE2|AVX|AVX2]
Thread count: 40 physical cores, 80 logical processors, using up to 20 threads

Optimize a model with 29168 rows, 50688 columns and 136175 nonzeros
Model fingerprint: 0xfb23aac6
Variable types: 46944 continuous, 3744 integer (3744 binary)
Coefficient statistics:
  Matrix range     [6e-01, 2e+04]
  Objective range  [2e+00, 2e+04]
  Bounds range     [5e-02, 2e+05]
  RHS range        [5e-02, 7e+03]
Presolve removed 14001 rows and 38478 columns
Presolve time: 0.34s
Presolved: 15167 rows, 12210 columns, 64641 nonzeros
Variable types: 9178 continuous, 3032 integer (3032 binary)
Found heuristic solution: objective 187205.63461
Found heuristic solution: objective 184409.13056
Found heuristic solution: objective 157999.07814

Root relaxation: objective 5.833154e+04, 6914 iterations, 0.25 seconds (0.18 work units)

    Nodes    |    Current Node    |     Objective Bounds      |     Work
 Expl Unexpl |  Obj  Depth IntInf | Incumbent    BestBd   Gap | It/Node Time

     0     0 58331.5367    0    5 157999.078 58331.5367  63.1%     -    1s
H    0     0                    157999.07812 58331.5367  63.1%     -    1s
H    0     0                    58661.455622 58331.5367  0.56%     -    1s
H    0     0                    58661.455614 58333.3758  0.56%     -    1s
     0     0 58333.3758    0    5 58661.4556 58333.3758  0.56%     -    1s
     0     0 58333.3758    0    1 58661.4556 58333.3758  0.56%     -    2s
     0     0 58346.2744    0    2 58661.4556 58346.2744  0.54%     -    2s
     0     0 58362.9491    0    1 58661.4556 58362.9491  0.51%     -    2s
     0     0 58362.9491    0    2 58661.4556 58362.9491  0.51%     -    2s
     0     0 58366.5767    0    2 58661.4556 58366.5767  0.50%     -    2s
     0     0 58366.5767    0    2 58661.4556 58366.5767  0.50%     -    2s
     0     0 58366.5767    0    1 58661.4556 58366.5767  0.50%     -    2s
     0     0 58366.5767    0    1 58661.4556 58366.5767  0.50%     -    2s
     0     2 58366.5767    0    1 58661.4556 58366.5767  0.50%     -    2s
H   98    18                    58661.455437 58412.3888  0.42%   3.5    3s
H   99    18                    58455.487747 58412.3888  0.07%   3.5    3s
H  105    18                    58428.218066 58412.4433  0.03%   3.4    3s
H  105    18                    58427.891247 58412.4433  0.03%   3.4    3s

Cutting planes:
  Gomory: 1
  MIR: 1
  Flow cover: 1

Explored 117 nodes (12413 simplex iterations) in 3.05 seconds (1.79 work units)
Thread count was 20 (of 80 available processors)

Solution count 6: 58427.9 58455.5 58661.5 ... 187206

Optimal solution found (tolerance 3.00e-03)
Best objective 5.842789124750e+04, best bound 5.841244328153e+04, gap 0.0264%

User-callback calls 1900, time in user-callback 0.00 sec
